HFSDDW
15	4	2
0	2	1	61
0	5	1	24
0	64	1	69
0	34	1	99
0	76	1	2
0	71	1	25
0	22	1	70
0	61	1	74
0	53	1	52
0	59	1	3
0	59	1	56
0	78	1	32
0	52	1	78
0	95	1	40
0	73	1	1
LBCmax: 404
RELDUE
-1	64	5	4
-1	91	3	9
-1	46	1	6
-1	122	2	7
-1	85	9	4
-1	191	5	8
-1	68	7	7
-1	199	8	7
-1	46	9	3
-1	78	7	9
-1	267	5	3
-1	146	8	5
-1	167	9	6
-1	191	8	5
-1	146	4	1
DDW
61	67
90	92
44	48
100	144
84	86
174	208
58	78
181	217
40	52
71	85
214	320
130	162
165	169
157	225
124	168
